NAME: toy20_uniform_seed202510289
TYPE: TSP
DIMENSION: 20
EDGE_WEIGHT_TYPE: EUC_2D
NODE_COORD_SECTION
1 320 532
2 275 436
3 496 357
4 606 16
5 318 585
6 965 678
7 999 784
8 262 762
9 210 41
10 414 70
11 45 543
12 877 138
13 855 912
14 173 57
15 824 87
16 933 978
17 968 244
18 168 990
19 111 787
20 424 828
EOF
